\ENCODING=ISO-8859-1
\Problem name: IloCplex

Minimize
 obj: 1000000000000 x1 + 1000000000000 x2 + 1000000000000 x3 + 1000000000000 x4
      + 1000000000000 x5 + 1000000000000 x6 + 1000000000000 x7
      + 1000000000000 x8 + 1000000000000 x9 + 1000000000000 x10
      + 1000000000000 x11 + 1000000000000 x12 + 1000000000000 x13
      + 1000000000000 x14 + 1000000000000 x15 + 1000000000000 x16
      + 1000000000000 x17 + 1000000000000 x18 + 1000000000000 x19
      + 1000000000000 x20 + 1000000000000 x21 + 1000000000000 x22
      + 1000000000000 x23 + 1000000000000 x24 + 1000000000000 x25
      + 1000000000000 x26 + 1000000000000 x27 + 1000000000000 x28
      + 1000000000000 x29 + 1000000000000 x30 + 1000000000000 x31
      + 1000000000000 x32 + 1000000000000 x33 + 1000000000000 x34
      + 1000000000000 x35 + 1000000000000 x36 + 1000000000000 x37
      + 1000000000000 x38 + 1000000000000 x39 + 1000000000000 x40
      + 1000000000000 x41 + 1000000000000 x42 + 1000000000000 x43
      + 1000000000000 x44 + 1000000000000 x45 + 1000000000000 x46
      + 1000000000000 x47 + 1000000000000 x48 + 1000000000000 x49
      + 1000000000000 x50 + x51 + x52 + x53 + x54 + x55 + x56 + x57 + x58 + x59
      + x60 + x61 + x62 + x63 + x64 + x65 + x66 + x67 + x68 + x69 + x70 + x71
      + x72 + x73 + x74 + x75 + x76 + x77 + x78 + x79 + x80 + x81 + x82 + x83
      + x84 + x85 + x86 + x87 + x88 + x89 + x90 + x91 + x92 + x93 + x94 + x95
      + x96 + x97 + x98 + x99 + x100 + x101 + x102 + x103 + x104 + x105 + x106
      + x107 + x108 + x109 + x110 + x111 + x112 + x113 + x114 + x115 + x116
      + x117 + x118 + x119 + x120 + x121 + x122 + x123 + x124 + x125 + x126
      + x127 + x128 + x129 + x130 + x131 + x132 + x133 + x134 + x135 + x136
      + x137 + x138 + x139 + x140 + x141 + x142 + x143 + x144 + x145 + x146
      + x147 + x148 + x149 + x150 + x151 + x152 + x153 + x154 + x155 + x156
      + x157 + x158 + x159 + x160 + x161 + x162 + x163 + x164 + x165 + x166
      + x167 + x168 + x169 + x170 + x171 + x172 + x173 + x174 + x175 + x176
      + x177 + x178 + x179 + x180 + x181 + x182 + x183 + x184 + x185 + x186
      + x187 + x188 + x189 + x190 + x191 + x192 + x193 + x194 + x195 + x196
      + x197 + x198 + x199 + x200 + x201 + x202 + x203 + x204 + x205 + x206
      + x207 + x208 + x209 + x210 + x211 + x212 + x213 + x214 + x215 + x216
      + x217 + x218 + x219 + x220 + x221 + x222 + x223 + x224 + x225 + x226
      + x227 + x228 + x229 + x230 + x231 + x232 + x233 + x234
Subject To
 c1:  x1 + x121  = 1
 c2:  x2 + x118  = 1
 c3:  x3 + x119  = 1
 c4:  x4 + x120  = 1
 c5:  x5 + x141 + x163  = 1
 c6:  x6 + x164  = 1
 c7:  x7 + x149 + x162  = 1
 c8:  x8 + x161 + x182  = 1
 c9:  x9 + x155 + x160 + x198 + x209  = 1
 c10: x10 + x152 + x154  = 1
 c11: x11 + x144 + x145 + x195 + x207 + x215  = 1
 c12: x12 + x117 + x165 + x168 + x173 + x199  = 1
 c13: x13 + x138 + x140 + x172 + x189 + x205  = 1
 c14: x14 + x131 + x137 + x151 + x169 + x186  = 1
 c15: x15 + x126 + x136 + x150 + x167 + x175  = 1
 c16: x16 + x127 + x135  = 1
 c17: x17 + x100 + x114 + x143 + x153 + x176 + x212 + x219 + x220  = 1
 c18: x18 + x122 + x124 + x125 + x147 + x180 + x196 + x200  = 1
 c19: x19 - 8.58452198215788e-12 x108 + x109 + x113 + x115 + x148 + x158 + x194
      + x208 + x225 + x229  = 1
 c20: x20 + x83 + 1.00000000000687 x108 + x134 + x179 + x191 + x192  = 1
 c21: x21 + x101 + x104 + x116 + x132 + x142 + x184 + x187 + x230 + x231  = 1
 c22: x22 + x96 + x98 + x107 + x157 + x188 + x193  = 1
 c23: x23 + x94 + x97 + x99 + x123 + x139 + x156 + x157 + x203 + x232 + x233
       = 1
 c24: x24 + x90 + x96 + x103 + x105 + x156 + x178 + x187 + x202 + x203 + x211
      + x214 + x217 + x218 + x222 + x227  = 1
 c25: x25 + x86 + x87 + x93 + x110 + x132 + x134 + x204 + x216 + x221 + x227
      + x228 + x232  = 1
 c26: x26 + x82 + x85 + x86 + x112 + x129 + x130 + x159 + x166 + x171 + x179
      + x181 + x183 + x185 + x226  = 1
 c27: x27 + x81 + x82 + x88 + x95 + x102 + x105 + x106 + x111 + x142 + x170
      + x181 + x190 + x192 + x221 + x222 + x234  = 1
 c28: x28 + x80 + x81 + x92 + x112 + x128 + x139 + x170 + x183 + x190 + x191
      + x204 + x206 + x210 + x211 + x213 + x214 + x224  = 1
 c29: x29 + x77 + x79 + x80 + x88 + x106 + x146 + x159 + x166 + x176 + x217
      + x223  = 1
 c30: x30 + x76 + x77 + x79 + x89 + x111 + x128 + x135 + x223  = 1
 c31: x31 + x75 + x76 + x78 + x91 + x94 + x129 + x133 + x167 + x210  = 1
 c32: x32 + x70 + x72 + x75 + x78 + x79 + x92 + x101 + x147 + x174 + x185
      + x206 + x226  = 1
 c33: x33 + x71 + x72 + x74 + x76 + x84 + x95 + x122 + x127 + x171 + x174
      + x175 + x178 + x210 + x218 + x220 + x223 + x224 + x225  = 1
 c34: x34 + x66 + x67 + x71 + x73 + x74 + x91 + x99 + x110 + x129 + x158 + x177
      + x186 + x197 + x201 + x213 + x226  = 1
 c35: x35 + x66 + x67 + x72 + x89 + x102 + x109 + x125 + x169 + x197 + x212
      + x213 + x233 + x234  = 1
 c36: x36 + x63 + x65 + x67 + x78 + x85 + x93 + x107 + x108 + x116 + x153
      + x177 + x185 + x193 + x197 + x201 + x202 + x206 + x208 + x234  = 1
 c37: x37 + x63 + x65 + x66 + x69 + x92 + x103 + x104 + x115 + x133 + x143
      + x166 + x177 + x178 + x188 + x189 + x231  = 1
 c38: x38 + x63 + x64 + x68 + x69 + x70 + x80 + x91 + x95 + x123 + x130 + x133
      + x138 + x199  = 1
 c39: x39 + x61 + x62 + x63 + x68 + x69 + x73 + x84 + x90 + x97 + x110 + x114
      + x130 + x137 + x171 + x172 + x173 + x184 + x196 + x201 + x202 + x230
      + x231 + x233  = 1
 c40: x40 + x58 + x60 + x61 + x62 + x64 + x65 + x68 + x84 + x87 + x89 + x93
      + x98 + x99 + x100 + x102 + x146 + x150 + x159 + x165 + x184 + x188
      + x193 + x194  = 1
 c41: x41 + x55 + x56 + x57 + x58 + x59 + x61 + x62 + x64 + x71 + x83 + x111
      + x116 + x146 + x148 + x168 + x174 + x200 + x205 + x216 + x217 + x219
      + x228  = 1
 c42: x42 + x55 + x56 + x57 + x58 + x59 + x60 + x68 + x73 + x75 + x83 + x103
      + x106 + x113 + x123 + x124 + x126 + x140 + x170 + x174 + x180 + x201
      + x216 + x218 + x224 + x228 + x229  = 1
 c43: x43 + x51 + x52 + x53 + x54 + x55 + x56 + x57 + x59 + x61 + x64 + x66
      + x74 + x85 + x90 + x98 + x101 + x128 + x136 + x148 + x151 + x177 + x180
      + x181 + x183 + x190 + x194 + x197 + x200 + x230  = 1
 c44: x44 + x51 + x52 + x53 + x54 + x55 + x56 + x57 + x58 + x62 + x70 + x74
      + x82 + x87 + x90 + x97 + x108 + x124 + x133 + x136 + x145 + x154  = 1
 c45: x45 + x51 + x52 + x53 + x54 + x55 + x56 + x59 + x60 + x62 + x70 + x73
      + x77 + x84 + x85 + x88 + x89 + x91 + x97 + x105 + x107 + x115 + x146
      + x152 + x214 + x215 + x228 + x229  = 1
 c46: x46 + x51 + x52 + x53 + x54 + x55 + x60 + x61 + x65 + x67 + x69 + x71
      + x77 + x84 + x87 + x94 + x104 + x112 + x113 + x131 + x144 + x155 + x182
       = 1
 c47: x47 + x51 + x52 + x53 + x54 + x57 + x58 + x59 + x65 + x69 + x70 + x73
      + x78 + x86 + x102 + x114 + x139 + x146 + x158 + x160 + x195 + x196
      + x198  = 1
 c48: x48 + x51 + x52 + x53 + x57 + x59 + x60 + x62 + x64 + x69 + x70 + x74
      + x75 + x81 + x88 + x93 + x103 + x104 + x109 + x122 + x128 + x130 + x131
      + x133 + x141  = 1
 c49: x49 + x51 + x52 + x58 + x59 + x60 + x68 + x71 + x72 + x77 + x81 + x87
      + x98 + x100 + x112 + x123 + x126 + x149  = 1
 c50: x50 + x51 + x58 + x60 + x61 + x64 + x67 + x73 + x74 + x75 + x82 + x88
      + x89 + x92 + x95 + x98 + x100 + x128 + x130 + x132 + x144 + x151 + x156
      + x159 + x160 + x168 + x171 + x172 + x190 + x209  = 1
Bounds
      x51 = 0
      x58 = 0
      x60 = 0
      x61 = 0
      x64 = 0
      x67 = 0
      x73 = 0
      x74 = 0
      x75 = 0
      x82 = 0
      x88 = 0
      x89 = 0
      x92 = 0
      x95 = 0
      x98 = 0
      x100 = 0
      x128 = 0
      x130 = 0
      x132 = 0
      x144 = 0
      x151 = 0
      x155 = 0
      x156 = 0
      x159 = 0
      x168 = 0
      x171 = 0
      x172 = 0
      x173 = 0
      x190 = 0
      x198 = 0
      x199 = 0
End
